86
133
50
72
124
71
38
28
39
101
56
119
5
43
95
94
123
91
70
111
121
76
131
139
21
122
89
41
59
3
118
73
69
74
57
36
100
33
45
81
97
144
136
92
99
141
19
105
143
93
49
18
29
37
120
16
135
146
51
127
63
44
66
48
103
128
84
11
52
150
87
96
10
14
4
116
60
140
115
77
80
147
65
130
15
13
79
110
64
20
42
55
67
31
47
6
149
54
134
75
22
112
8
106
17
25
90
34
145
109
98
148
88
58
114
108
113
126
83
62
138
104
2
35
68
30
23
102
129
107
27
85
1
53
137
125
46
142
132
32
117
24
61
26
78
9
82
7
12
40
86
